53
14 42 242
42 32 365
32 50 475
50 10 285
10 51 399
51 13 319
13 12 206
12 46 324
46 25 186
25 26 126
26 27 110
27 11 182
11 24 245
24 3 109
3 5 70
5 9 523
9 8 83
8 7 183
7 40 64
40 18 92
18 44 75
44 31 151
31 48 50
48 21 94
21 30 104
30 17 80
17 2 135
2 16 217
16 20 253
20 41 290
41 6 76
6 1 45
1 52 187
52 29 480
29 22 179
22 19 94
19 49 35
49 28 191
28 15 201
15 43 132
43 33 80
33 34 21
34 35 15
35 38 43
38 39 43
39 37 35
37 36 43
36 45 139
45 47 125
47 23 16
23 4 32
4 14 25

